n = 40;
lu = [|-240, -40
      |-920, -655
      |-21, 767
      |-439, 1226
      |-467, 665
      |-30, 1396
      |761, 1526
      |-1562, 1599
      |-580, 1109
      |-1525, 199
      |-987, -965
      |-294, 1362
      |-914, -546
      |1081, 1231
      |791, 942
      |-1357, -1110
      |-1465, 807
      |-446, 171
      |-716, 1409
      |-1303, 1374
      |-125, 1399
      |-1088, 346
      |674, 1144
      |-1525, -1094
      |-1196, -1012
      |-872, 1221
      |-1381, -509
      |-678, -299
      |-1494, 939
      |766, 891
      |-855, 181
      |-1365, -366
      |-1003, 36
      |-1163, 1134
      |-1217, 67
      |-1512, 1117
      |420, 1088
      |-657, 17
      |-1512, -1249
      |-1282, -1048|];
